1 2
2 2
3 1
4 1
5 1
6 2
7 2
8 1
9 1
10 2
11 2
12 2
13 2
14 2
15 1
16 1
17 2
18 2
19 1
20 2
21 1
22 1
23 1
24 1
25 2
26 2
27 2
28 1
29 1
30 2
31 1
32 2
33 1
34 2
35 2
36 1
37 1
38 1
39 2
40 2
41 2
42 2
43 2
44 1
45 1
46 1
47 1
48 1
49 1
50 1
51 2
52 2
53 1
54 2
55 2
56 2
57 2
58 2
59 1
60 2
61 2
62 2
63 1
64 1
65 1
66 2
67 2
68 1
69 2
70 2
71 2
72 1
73 2
74 2
75 1
76 2
77 1
78 1
79 1
80 2
81 2
82 2
83 2
84 1
85 2
86 2
87 1
88 1
89 1
90 2
91 1
92 2
93 1
94 2
95 2
96 1
97 2
98 1
99 2
100 2
101 2
102 1
103 2
104 2
105 2
106 1
107 1
108 1
109 1
110 2
111 1
112 1
113 1
114 1
115 1
116 2
117 2
118 1
119 1
120 2
121 2
122 1
123 2
124 1
125 2
126 2
127 1
128 2
129 2
130 1
131 1
132 1
133 2
134 2
135 1
136 2
137 1
138 2
139 2
140 1
141 2
142 1
143 1
144 2
145 1
146 1
147 1
148 2
149 2
150 1
151 1
152 2
153 2
154 2
155 2
156 2
157 1
158 1
159 2
160 1
161 1
162 1
163 1
164 2
165 2
166 2
167 2
168 2
169 1
170 1
171 2
172 2
173 2
174 2
175 2
176 1
177 1
178 1
179 2
180 2
181 1
182 1
183 1
184 1
185 2
186 1
187 2
188 2
189 2
190 1
191 2
192 2
193 2
194 2
195 2
196 2
197 1
198 2
199 2
200 2
201 2
202 2
203 1
204 1
205 2
206 1
207 2
208 2
209 2
210 2
211 1
212 2
213 2
214 1
215 2
216 2
217 2
218 2
219 2
220 1
221 2
222 1
223 2
224 2
225 2
226 1
227 1
228 1
229 2
230 1
231 2
232 1
233 2
234 2
235 2
236 1
237 1
238 2
239 1
240 1
241 1
242 2
243 1
244 2
245 2
246 1
247 2
248 2
249 1
250 1
251 1
252 2
253 2
254 1
255 2
256 1
257 2
258 1
259 1
260 1
261 2
262 2
263 1
264 1
265 1
266 1
267 2
268 2
269 2
270 2
271 2
272 1
273 1
274 1
275 1
276 2
277 2
278 2
279 1
280 1
281 2
282 2
283 1
284 2
285 1
286 1
287 1
288 2
289 1
290 1
291 1
292 2
293 2
294 2
295 1
296 1
297 1
298 2
299 1
300 2
301 2
302 1
303 1
304 1
305 1
306 1
307 1
308 1
309 2
310 1
311 2
312 2
313 2
314 1
315 2
316 1
317 2
318 1
319 2
320 2
321 2
322 2
323 2
324 1
325 1
326 1
327 1
328 2
329 1
330 1
331 2
332 1
333 1
334 1
335 2
336 1
337 1
338 1
339 2
340 1
341 2
342 2
343 1
344 1
345 2
346 1
347 1
348 1
349 2
350 1
351 1
352 1
353 2
354 1
355 2
356 1
357 2
358 1
359 2
360 2
361 1
362 2
363 1
364 2
365 2
366 1
367 2
368 2
369 1
370 2
371 1
372 2
373 1
374 1
375 1
376 1
377 1
378 2
379 1
380 2
381 2
382 2
383 2
384 2
385 1
386 2
387 1
388 1
389 2
390 2
391 1
392 2
393 2
394 2
395 1
396 2
397 2
398 1
399 2
400 1
401 1
402 2
403 1
404 1
405 1
406 1
407 1
408 2
409 1
410 2
411 1
412 1
413 1
414 2
415 1
416 2
417 2
418 2
419 2
420 2
421 2
422 1
423 1
424 1
425 2
426 1
427 2
428 1
429 2
430 1
431 1
432 2
433 1
434 1
435 2
436 1
437 1
438 2
439 1
440 1
441 2
442 2
443 2
444 1
445 2
446 1
447 1
448 1
449 1
450 1
451 2
452 2
453 2
454 1
455 2
456 1
457 2
458 2
459 2
460 2
461 2
462 2
463 1
464 2
465 1
466 2
467 2
468 1
469 1
470 2
471 2
472 2
473 1
474 1
475 1
476 1
477 1
478 1
479 2
480 2
481 1
482 1
483 2
484 1
485 2
486 2
487 1
488 2
489 2
490 1
491 1
492 2
493 2
494 2
495 2
496 1
497 2
498 1
499 2
500 2
501 2
502 2
503 2
504 1
505 2
506 2
507 1
508 1
509 2
510 2
511 2
512 1
513 2
514 1
515 1
516 2
517 1
518 2
519 1
520 2
521 2
522 2
523 2
524 2
525 1
526 1
527 2
528 2
529 1
530 1
531 2
532 2
533 2
534 1
535 2
536 1
537 2
538 1
539 1
540 1
541 1
542 1
543 1
544 2
545 2
546 1
547 1
548 2
549 1
550 2
551 1
552 2
553 2
554 2
555 1
556 2
557 2
558 1
559 1
560 1
561 1
562 2
563 1
564 2
565 1
566 1
567 2
568 1
569 1
570 2
571 1
572 1
573 2
574 2
575 1
576 2
577 2
578 1
579 1
580 1
581 2
582 2
583 2
584 1
585 2
586 1
587 1
588 2
589 2
590 1
591 2
592 2
593 2
594 1
595 1
596 2
597 1
598 2
599 1
600 2
601 1
602 2
603 2
604 1
605 1
606 1
607 2
608 1
609 2
610 1
611 1
612 1
613 2
614 2
615 1
616 2
617 1
618 2
619 2
620 1
621 1
622 2
623 2
624 2
625 2
626 2
627 2
628 1
629 1
630 2
631 1
632 1
633 2
634 2
635 1
636 2
637 2
638 1
639 1
640 1
641 1
642 2
643 1
644 1
645 2
646 2
647 2
648 2
649 1
650 2
651 1
652 1
653 2
654 2
655 2
656 2
657 1
658 1
659 1
660 2
661 1
662 1
663 2
664 1
665 2
666 1
667 1
668 1
669 2
670 2
671 2
672 2
673 1
674 2
675 1
676 2
677 1
678 1
679 1
680 1
681 2
682 2
683 2
684 1
685 2
686 2
687 2
688 2
689 2
690 2
691 1
692 1
693 2
694 2
695 1
696 1
697 1
698 1
699 1
700 2
